
Gurobi 9.5.0 (linux64) logging started Fri Dec 15 10:39:01 2023

Set parameter LogFile to value "/lustre1/scratch/348/vsc34888/JointResearch/05.Models/06.Benchmarking/K.Investments_per_hour/RTS24_mod1_ByStages_nc20/openStarNet_RTS24_mod1_ByStages_nc20.log"
Set parameter Method to value 2
Set parameter MIPFocus to value 1
Set parameter Presolve to value 2
Set parameter RINS to value 100
Set parameter MIPGap to value 0.01
Set parameter Threads to value 36
Set parameter TimeLimit to value 259200
Set parameter IterationLimit to value 760000000
Gurobi Optimizer version 9.5.0 build v9.5.0rc5 (linux64)
Thread count: 36 physical cores, 36 logical processors, using up to 36 threads
Optimize a model with 7458 rows, 5035 columns and 20271 nonzeros
Model fingerprint: 0x7dd63ad8
Variable types: 5014 continuous, 21 integer (21 binary)
Coefficient statistics:
  Matrix range     [1e-03, 3e+03]
  Objective range  [1e+00, 1e+00]
  Bounds range     [5e-05, 2e+00]
  RHS range        [5e-05, 2e+00]
Presolve removed 4440 rows and 2539 columns
Presolve time: 0.03s
Presolved: 3018 rows, 2496 columns, 10888 nonzeros
Variable types: 2475 continuous, 21 integer (21 binary)
Found heuristic solution: objective 87.1217989
Root relaxation presolve removed 5 rows and 5 columns
Root relaxation presolved: 3013 rows, 2491 columns, 10878 nonzeros

Root barrier log...

Ordering time: 0.05s

Barrier statistics:
 AA' NZ     : 8.902e+04
 Factor NZ  : 4.225e+05 (roughly 6 MB of memory)
 Factor Ops : 9.370e+07 (less than 1 second per iteration)
 Threads    : 36

                  Objective                Residual
Iter       Primal          Dual         Primal    Dual     Compl     Time
   0   2.02760603e+06 -1.28190697e+08  1.64e+01 8.57e+02  1.17e+05     0s
   1   5.75147673e+05 -6.10482847e+07  4.65e+00 8.46e-10  3.03e+04     0s
   2   5.67811418e+04 -3.95719901e+07  4.91e-01 4.20e-10  7.47e+03     0s
   3   1.87724591e+04 -5.47887519e+06  1.27e-01 2.94e-10  9.53e+02     0s
   4   8.14765057e+03 -6.76708461e+05  5.30e-03 6.76e-11  9.92e+01     0s
   5   6.16339904e+03 -6.01841189e+04  4.56e-13 3.27e-10  9.42e+00     0s
   6   1.61991142e+03 -1.44731716e+04  3.49e-13 7.76e-11  2.28e+00     0s
   7   5.37672510e+02 -3.10049547e+03  2.93e-13 1.66e-11  5.16e-01     0s
   8   2.95780682e+02 -6.61387288e+02  1.84e-13 3.64e-12  1.36e-01     0s
   9   1.89429456e+02 -2.15983853e+02  1.03e-13 7.28e-12  5.75e-02     0s
  10   9.06996445e+01 -6.31508574e+01  6.84e-13 7.28e-12  2.18e-02     0s
  11   5.86636679e+01 -2.05957240e+00  6.57e-13 7.28e-12  8.62e-03     0s
  12   5.10561502e+01  2.09170005e+01  3.36e-13 7.28e-12  4.28e-03     0s
  13   4.64878951e+01  3.34425503e+01  4.41e-13 1.46e-11  1.85e-03     0s
  14   4.49475538e+01  3.66106224e+01  5.08e-13 7.28e-12  1.18e-03     0s
  15   4.33337447e+01  3.79743876e+01  5.12e-13 7.28e-12  7.61e-04     0s
  16   4.22014029e+01  3.95310301e+01  3.14e-12 7.28e-12  3.79e-04     0s
  17   4.17008241e+01  3.97358036e+01  2.13e-12 1.82e-12  2.79e-04     0s
  18   4.07890184e+01  4.01929845e+01  8.48e-12 3.64e-12  8.46e-05     0s
  19   4.06542405e+01  4.03862222e+01  6.81e-12 1.82e-12  3.80e-05     0s
  20   4.06210057e+01  4.04555981e+01  1.03e-11 1.82e-12  2.35e-05     0s
  21   4.05563333e+01  4.05085237e+01  5.95e-11 3.64e-12  6.79e-06     0s
  22   4.05254041e+01  4.05168441e+01  1.24e-11 7.28e-12  1.21e-06     0s
  23   4.05203179e+01  4.05193353e+01  3.07e-11 7.28e-12  1.39e-07     0s
  24   4.05197557e+01  4.05197034e+01  2.93e-11 7.28e-12  7.43e-09     0s
  25   4.05197512e+01  4.05197511e+01  1.57e-11 3.64e-12  2.44e-11     0s

Barrier solved model in 25 iterations and 0.47 seconds (0.15 work units)
Optimal objective 4.05197512e+01


Root relaxation: objective 4.051975e+01, 409 iterations, 0.42 seconds (0.10 work units)

    Nodes    |    Current Node    |     Objective Bounds      |     Work
 Expl Unexpl |  Obj  Depth IntInf | Incumbent    BestBd   Gap | It/Node Time

     0     0   40.51975    0   15   87.12180   40.51975  53.5%     -    0s
H    0     0                      77.6502606   41.58364  46.4%     -    0s
     0     0   41.58364    0   13   77.65026   41.58364  46.4%     -    0s
H    0     0                      75.0729135   41.58364  44.6%     -    0s
     0     0   42.10584    0   13   75.07291   42.10584  43.9%     -    0s
     0     0   42.10584    0   11   75.07291   42.10584  43.9%     -    0s
     0     0   42.10584    0   10   75.07291   42.10584  43.9%     -    0s
H    0     0                      70.5506004   42.10584  40.3%     -    0s
H    0     0                      67.1912484   42.57606  36.6%     -    0s
     0     0   42.64597    0   11   67.19125   42.64597  36.5%     -    0s
     0     0   42.87557    0   12   67.19125   42.87557  36.2%     -    0s
     0     0   43.25723    0   12   67.19125   43.25723  35.6%     -    0s
     0     0   43.88048    0   11   67.19125   43.88048  34.7%     -    0s
H    0     0                      65.9617386   44.09215  33.2%     -    0s
     0     0   44.09215    0   11   65.96174   44.09215  33.2%     -    0s
     0     0   44.10695    0   11   65.96174   44.10695  33.1%     -    0s
H    0     0                      65.3575899   44.28104  32.2%     -    0s
     0     0   44.53033    0   11   65.35759   44.53033  31.9%     -    1s
H    0     0                      59.2617677   44.53033  24.9%     -    2s
     0     2   44.53033    0   11   59.26177   44.53033  24.9%     -    2s
H   14    16                      59.1113631   44.53033  24.7%   121    2s
H  101   112                      59.0020615   45.82469  22.3%   115    3s
H  120   112                      58.5211553   45.89175  21.6%   114    3s
H  137   128                      58.4212801   45.92412  21.4%   114    4s
   465   200     cutoff   12        58.42128   47.54004  18.6%  86.4    5s
  2400    93   55.63292    9   10   58.42128   51.46453  11.9%  55.5   11s

Cutting planes:
  Gomory: 1
  Implied bound: 21
  MIR: 113
  Relax-and-lift: 18

Explored 2903 nodes (151817 simplex iterations) in 11.92 seconds (12.99 work units)
Thread count was 36 (of 36 available processors)

Solution count 10: 58.4213 58.5212 59.0021 ... 75.0729

Optimal solution found (tolerance 1.00e-02)
Best objective 5.842128005946e+01, best bound 5.842128005946e+01, gap 0.0000%

Gurobi 9.5.0 (linux64) logging started Fri Dec 15 10:39:13 2023

Set parameter LogFile to value "/lustre1/scratch/348/vsc34888/JointResearch/05.Models/06.Benchmarking/K.Investments_per_hour/RTS24_mod1_ByStages_nc20/openStarNet_RTS24_mod1_ByStages_nc20.log"
Set parameter Method to value 2
Set parameter MIPFocus to value 1
Set parameter Presolve to value 2
Set parameter RINS to value 100
Set parameter MIPGap to value 0.01
Set parameter Threads to value 36
Set parameter TimeLimit to value 259200
Set parameter IterationLimit to value 760000000
No parameters matching 'relax_integrality' found
Gurobi Optimizer version 9.5.0 build v9.5.0rc5 (linux64)
Thread count: 36 physical cores, 36 logical processors, using up to 36 threads
Optimize a model with 7458 rows, 5014 columns and 18486 nonzeros
Model fingerprint: 0xedead852
Coefficient statistics:
  Matrix range     [1e-03, 3e+03]
  Objective range  [1e+00, 1e+00]
  Bounds range     [5e-05, 2e+00]
  RHS range        [5e-05, 2e+01]
Presolve removed 6181 rows and 2783 columns
Presolve time: 0.01s
Presolved: 1277 rows, 2273 columns, 5532 nonzeros

Ordering time: 0.00s

Barrier statistics:
 AA' NZ     : 2.715e+03
 Factor NZ  : 9.926e+03 (roughly 1 MB of memory)
 Factor Ops : 1.190e+05 (less than 1 second per iteration)
 Threads    : 1

                  Objective                Residual
Iter       Primal          Dual         Primal    Dual     Compl     Time
   0   1.07920563e+06 -3.50637883e+07  6.24e+00 1.84e+03  6.93e+04     0s
   1   6.74929517e+04 -2.18990932e+07  3.70e-01 5.82e-11  8.58e+03     0s
   2   3.31211665e+04 -6.61895968e+06  1.05e-01 5.90e-11  2.14e+03     0s
   3   1.78410969e+04 -4.49336918e+05  4.67e-03 4.77e-11  1.27e+02     0s
   4   9.17882601e+03 -4.73212389e+04  1.65e-05 8.21e-10  1.50e+01     0s
   5   1.85500380e+03 -1.14457752e+04  1.39e-06 2.10e-10  3.54e+00     0s
   6   5.64799544e+02 -2.51658318e+03  9.49e-08 4.26e-11  8.20e-01     0s
   7   2.25399309e+02 -6.52299166e+02  3.89e-11 1.53e-11  2.34e-01     0s
   8   1.20871699e+02 -1.05888858e+02  7.18e-12 1.46e-11  6.03e-02     0s
   9   7.76694045e+01  1.12623274e+01  1.62e-12 1.46e-11  1.77e-02     0s
  10   6.56734703e+01  4.17159575e+01  1.19e-12 3.64e-12  6.38e-03     0s
  11   6.15128209e+01  5.32611040e+01  6.37e-13 1.46e-11  2.20e-03     0s
  12   5.95566347e+01  5.66604230e+01  3.48e-13 3.64e-12  7.71e-04     0s
  13   5.86676336e+01  5.79473172e+01  1.22e-12 3.64e-12  1.92e-04     0s
  14   5.84444222e+01  5.83855657e+01  5.53e-13 3.64e-12  1.57e-05     0s
  15   5.84272833e+01  5.84176789e+01  5.81e-13 7.28e-12  2.56e-06     0s
  16   5.84220864e+01  5.84197920e+01  4.08e-13 3.64e-12  6.11e-07     0s
  17   5.84213280e+01  5.84212042e+01  8.15e-13 1.46e-11  3.29e-08     0s
  18   5.84212803e+01  5.84212764e+01  3.83e-13 1.46e-11  1.04e-09     0s
  19   5.84212801e+01  5.84212801e+01  5.51e-13 3.64e-12  1.04e-12     0s
  20   5.84212801e+01  5.84212801e+01  4.14e-13 1.46e-11  1.04e-15     0s

Barrier solved model in 20 iterations and 0.03 seconds (0.02 work units)
Optimal objective 5.84212801e+01

Crossover log...

     249 DPushes remaining with DInf 0.0000000e+00                 0s

      61 PPushes remaining with PInf 0.0000000e+00                 0s
       0 PPushes remaining with PInf 0.0000000e+00                 0s

  Push phase complete: Pinf 0.0000000e+00, Dinf 4.7136094e-13      0s

Iteration    Objective       Primal Inf.    Dual Inf.      Time
      64    5.8421280e+01   0.000000e+00   0.000000e+00      0s

Use crossover to convert LP symmetric solution to basic solution...
Crossover log...

       0 DPushes remaining with DInf 0.0000000e+00                 0s

      33 PPushes remaining with PInf 0.0000000e+00                 0s
       0 PPushes remaining with PInf 0.0000000e+00                 0s

  Push phase complete: Pinf 0.0000000e+00, Dinf 1.1074930e-12      0s

Iteration    Objective       Primal Inf.    Dual Inf.      Time
     104    5.8421280e+01   0.000000e+00   0.000000e+00      0s

Solved in 104 iterations and 0.04 seconds (0.03 work units)
Optimal objective  5.842128006e+01
